Problem:    Dual_Simplex_Algorithm
Rows:       4
Columns:    6
Non-zeros:  17
Status:     OPTIMAL
Objective:  z = -16.5 (MINimum)

   No.   Row name   St   Activity     Lower bound   Upper bound    Marginal
------ ------------ -- ------------- ------------- ------------- -------------
     1 z            B          -16.5                             
     2 con1         NS            -3            -3             =          -2.5 
     3 con2         NS             4             4             =            -6 
     4 con3         NS            12            12             =         < eps

   No. Column name  St   Activity     Lower bound   Upper bound    Marginal
------ ------------ -- ------------- ------------- ------------- -------------
     1 x1           NL             0             0                        12.5 
     2 x2           NL             0             0                        10.5 
     3 x3           NL             0             0                         0.5 
     4 x4           B            1.5             0               
     5 x5           B            2.5             0               
     6 x6           B           16.5             0               

Karush-Kuhn-Tucker optimality conditions:

KKT.PE: max.abs.err = 0.00e+00 on row 0
        max.rel.err = 0.00e+00 on row 0
        High quality

KKT.PB: max.abs.err = 0.00e+00 on row 0
        max.rel.err = 0.00e+00 on row 0
        High quality

KKT.DE: max.abs.err = 0.00e+00 on column 0
        max.rel.err = 0.00e+00 on column 0
        High quality

KKT.DB: max.abs.err = 0.00e+00 on row 0
        max.rel.err = 0.00e+00 on row 0
        High quality

End of output
